10
0   126   1345   244   796   1018   7   151   347   1922   
126   0   635   239   1358   1434   1448   25   1437   215   
1345   635   0   1447   939   1431   187   1997   300   249   
244   239   1447   0   412   286   203   26   1164   996   
796   1358   939   412   0   1612   187   295   1569   644   
1018   1434   1431   286   1612   0   902   440   1011   352   
7   1448   187   203   187   902   0   1176   591   1562   
151   25   1997   26   295   440   1176   0   284   929   
347   1437   300   1164   1569   1011   591   284   0   67   
1922   215   249   996   644   352   1562   929   67   0   
0   0   5   0   0   0   0   0   5   0   
0   0   1271   3205   0   21   143   5   222   0   
0   0   0   10   1   0   0   3   0   26   
28   0   0   0   0   2   0   631   0   0   
0   0   0   511   0   805   2   7315   0   0   
5632   0   0   3036   1   0   0   0   0   75   
0   0   0   9   0   0   0   0   8   1   
0   4   0   0   107   33   1   0   3   3240   
0   0   7   516   42   0   700   0   0   12   
1   0   0   0   0   2   0   0   0   0   
